WARNING: for repeatability, setting FPU to use double precision
============================[ Problem Statistics ]=============================
|                                                                             |
|  Number of variables:        127091                                         |
|  Number of clauses:          296682                                         |
|  Parse time:                   0.08 s                                       |
|                                                                             |
c ============================[ Search Statistics ]==============================
c | Conflicts |          ORIGINAL         |          LEARNT          | Progress |
c |           |    Vars  Clauses Literals |    Limit  Clauses Lit/Cl |          |
c ===============================================================================
c Switched to VSIDS.
c Switched to LRB.
c Switched to VSIDS.
c Switched to LRB.
c Switched to VSIDS.
c Switched to LRB.
c Switched to VSIDS.
c Switched to LRB.
c Switched to VSIDS.
c ===============================================================================
restarts                  : 2986
conflicts                 : 1252995        (1238 /sec)
decisions                 : 30857982       (0.00 % random) (30488 /sec)
propagations              : 2659291785     (2627396 /sec)
conflict literals         : 68497795       (56.41 % deleted)

conflicts w/ DIP found    : 775609         (61.90 % of conflicts)
conflicts w/ dangerous DIP: 0              (0.00 % of conflicts)
conflicts w/ DIP-learning : 1191           (0.10 % of conflicts)
decisions on ext vars     : 790            (0.00 % of decisions)
total ext vars            : 314         
tried delete ext vars     : 4           
deleted ext vars          : 4           
max ext vars              : 310         

Memory used               : 192.00 MB
CPU time                  : 1012.14 s
DIP computation time      : 84.9025 s (8.39 % of total time)
ER_sel time               : 1.57335 s
ER_add time               : 0.003009 s
ER_delC time              : 0 s
ER_delV time              : 0.000658 s
ER_sub time               : 2.08116 s
ER_stat time              : 0 s

UNSATISFIABLE
